Gurobi Optimizer version 9.1.0 build v9.1.0rc0 (linux64)
Thread count: 8 physical cores, 16 logical processors, using up to 16 threads
Optimize a model with 96164 rows, 90720 columns and 526770 nonzeros
Model fingerprint: 0xff3bdf10
Variable types: 0 continuous, 90720 integer (90720 binary)
Coefficient statistics:
  Matrix range     [1e+00, 1e+00]
  Objective range  [1e+01, 3e+04]
  Bounds range     [1e+00, 1e+00]
  RHS range        [1e+00, 2e+02]
Presolve added 0 rows and 2470 columns
Presolve removed 30 rows and 0 columns
Presolve time: 2.08s
Presolved: 96134 rows, 93190 columns, 384210 nonzeros
Variable types: 0 continuous, 93190 integer (93190 binary)
Found heuristic solution: objective 287667.00000

Concurrent LP optimizer: primal simplex, dual simplex, and barrier
Showing barrier log only...

Root barrier log...

Ordering time: 0.37s

Barrier statistics:
 Dense cols : 360
 AA' NZ     : 2.982e+05
 Factor NZ  : 1.555e+06 (roughly 90 MBytes of memory)
 Factor Ops : 4.160e+08 (less than 1 second per iteration)
 Threads    : 6

                  Objective                Residual
Iter       Primal          Dual         Primal    Dual     Compl     Time
   0   7.33672488e+07 -1.07813749e+08  2.04e+02 3.08e+01  9.28e+03     4s
   1   6.77561170e+05 -1.13499540e+08  1.15e+00 2.62e+02  4.55e+02     4s
   2   3.81599304e+05 -5.00692614e+07  2.55e-01 1.12e+02  1.87e+02     4s
   3   3.42543328e+05 -1.54926975e+07  1.32e-01 3.31e+01  5.80e+01     5s
   4   3.04761128e+05 -1.00247142e+06  2.69e-02 2.00e+01  4.70e+00     5s
   5   2.89764749e+05 -3.55474058e+05  1.83e-02 8.88e+00  2.31e+00     5s
   6   2.70305705e+05  1.92319313e+04  1.02e-02 2.72e+00  8.95e-01     5s
   7   2.55368466e+05  1.10028983e+05  6.37e-03 1.23e+00  5.17e-01     5s
   8   2.47723274e+05  1.61262159e+05  4.88e-03 5.73e-01  3.07e-01     5s
   9   2.43262869e+05  1.83322545e+05  4.13e-03 3.26e-01  2.12e-01     6s
  10   2.39546084e+05  1.90411259e+05  3.56e-03 2.49e-01  1.73e-01     6s
  11   2.35960557e+05  1.96228489e+05  3.03e-03 1.84e-01  1.40e-01     6s
  12   2.30469971e+05  2.04152255e+05  2.25e-03 9.84e-02  9.26e-02     6s
  13   2.25709637e+05  2.07217189e+05  1.61e-03 6.56e-02  6.50e-02     7s
  14   2.25377701e+05  2.09001758e+05  1.57e-03 4.93e-02  5.75e-02     7s
  15   2.23032023e+05  2.09555481e+05  1.25e-03 4.50e-02  4.73e-02     7s
  16   2.20755438e+05  2.10769119e+05  9.30e-04 3.21e-02  3.51e-02     7s
  17   2.18889054e+05  2.11523578e+05  6.71e-04 2.46e-02  2.59e-02     7s
  18   2.17813512e+05  2.11984660e+05  5.20e-04 2.01e-02  2.05e-02     7s
  19   2.16895527e+05  2.12521352e+05  3.85e-04 1.51e-02  1.54e-02     8s
  20   2.16518638e+05  2.12715027e+05  3.31e-04 1.32e-02  1.34e-02     8s
  21   2.15906896e+05  2.13054350e+05  2.43e-04 1.00e-02  1.00e-02     8s
  22   2.15665511e+05  2.13495248e+05  2.09e-04 6.12e-03  7.61e-03     8s
  23   2.15339320e+05  2.13609496e+05  1.65e-04 5.05e-03  6.07e-03     8s
  24   2.15204742e+05  2.13781216e+05  1.45e-04 3.61e-03  4.99e-03     9s
  25   2.15076436e+05  2.13891582e+05  1.26e-04 2.63e-03  4.15e-03     9s
  26   2.14958344e+05  2.13935228e+05  1.10e-04 2.19e-03  3.58e-03     9s
  27   2.14749731e+05  2.13990396e+05  8.16e-05 1.68e-03  2.66e-03     9s
  28   2.14645739e+05  2.14024447e+05  6.74e-05 1.49e-03  2.17e-03     9s
  29   2.14530657e+05  2.14057461e+05  5.05e-05 1.15e-03  1.66e-03     9s
  30   2.14452012e+05  2.14084852e+05  3.89e-05 8.76e-04  1.29e-03     9s
  31   2.14394310e+05  2.14112750e+05  3.02e-05 6.93e-04  9.85e-04    10s
  32   2.14341791e+05  2.14120155e+05  2.31e-05 6.23e-04  7.76e-04    10s
  33   2.14312442e+05  2.14140161e+05  1.90e-05 4.59e-04  6.02e-04    10s
  34   2.14294998e+05  2.14149426e+05  1.64e-05 3.71e-04  5.09e-04    10s
  35   2.14278283e+05  2.14153121e+05  1.37e-05 3.32e-04  4.38e-04    10s
  36   2.14255210e+05  2.14161177e+05  1.00e-05 2.59e-04  3.29e-04    10s
  37   2.14246835e+05  2.14169693e+05  8.65e-06 1.95e-04  2.70e-04    11s
  38   2.14237932e+05  2.14173681e+05  7.22e-06 1.63e-04  2.25e-04    11s
  39   2.14228684e+05  2.14177464e+05  5.75e-06 1.28e-04  1.79e-04    11s
  40   2.14224007e+05  2.14179328e+05  5.03e-06 1.20e-04  1.56e-04    11s
  41   2.14214964e+05  2.14182314e+05  3.65e-06 9.03e-05  1.14e-04    11s
  42   2.14210940e+05  2.14183849e+05  3.00e-06 7.46e-05  9.47e-05    11s
  43   2.14206102e+05  2.14185826e+05  2.22e-06 5.45e-05  7.09e-05    11s
  44   2.14204545e+05  2.14187191e+05  1.99e-06 4.34e-05  6.06e-05    12s
  45   2.14201836e+05  2.14188093e+05  1.56e-06 3.60e-05  4.80e-05    12s
  46   2.14200491e+05  2.14188833e+05  1.34e-06 2.91e-05  4.07e-05    12s
  47   2.14198189e+05  2.14189274e+05  9.91e-07 2.52e-05  3.12e-05    12s
  48   2.14196837e+05  2.14189828e+05  7.76e-07 1.96e-05  2.45e-05    12s
  49   2.14195128e+05  2.14190380e+05  5.10e-07 1.40e-05  1.66e-05    12s
  50   2.14194355e+05  2.14191253e+05  3.84e-07 6.50e-06  1.08e-05    12s
  51   2.14193366e+05  2.14191450e+05  2.27e-07 4.28e-06  6.69e-06    13s
  52   2.14193226e+05  2.14191665e+05  2.07e-07 2.41e-06  5.43e-06    13s
  53   2.14192698e+05  2.14191708e+05  1.22e-07 1.97e-06  3.45e-06    13s
  54   2.14192571e+05  2.14191854e+05  1.01e-07 6.32e-07  2.49e-06    13s
  55   2.14192422e+05  2.14191878e+05  7.66e-08 4.51e-07  1.89e-06    13s
  56   2.14192253e+05  2.14191910e+05  4.90e-08 1.29e-07  1.19e-06    13s
  57   2.14192154e+05  2.14191921e+05  3.35e-08 1.19e-07  8.08e-07    13s
  58   2.14192147e+05  2.14191923e+05  3.24e-08 1.02e-07  7.76e-07    14s
  59   2.14192113e+05  2.14191928e+05  2.70e-08 6.57e-08  6.39e-07    14s
  60   2.14192108e+05  2.14191929e+05  2.63e-08 5.68e-08  6.21e-07    14s
  61   2.14192092e+05  2.14191929e+05  2.41e-08 6.11e-08  5.66e-07    14s
  62   2.14191999e+05  2.14191930e+05  1.00e-08 5.12e-08  2.40e-07    14s
  63   2.14191939e+05  2.14191933e+05  2.44e-10 5.02e-08  2.40e-08    14s
  64   2.14191938e+05  2.14191937e+05  2.48e-10 9.41e-10  1.82e-09    14s

Barrier solved model in 64 iterations and 14.35 seconds
Optimal objective 2.14191938e+05


Root crossover log...

   23996 DPushes remaining with DInf 0.0000000e+00                14s
       0 DPushes remaining with DInf 0.0000000e+00                15s

     736 PPushes remaining with PInf 0.0000000e+00                15s
       0 PPushes remaining with PInf 0.0000000e+00                15s

  Push phase complete: Pinf 0.0000000e+00, Dinf 1.7233415e-10     15s


Root simplex log...

Iteration    Objective       Primal Inf.    Dual Inf.      Time
    4023    2.1419194e+05   0.000000e+00   0.000000e+00     15s
    4023    2.1419194e+05   0.000000e+00   0.000000e+00     15s

Solved with barrier

Root relaxation: objective 2.141919e+05, 4023 iterations, 12.34 seconds

    Nodes    |    Current Node    |     Objective Bounds      |     Work
 Expl Unexpl |  Obj  Depth IntInf | Incumbent    BestBd   Gap | It/Node Time

     0     0 214191.937    0 10211 287667.000 214191.937  25.5%     -   16s
H    0     0                    236926.00000 214191.937  9.60%     -   16s
H    0     0                    235524.00000 214191.937  9.06%     -   17s
     0     0 214194.075    0 10205 235524.000 214194.075  9.06%     -   22s
H    0     0                    235513.00000 214194.075  9.05%     -   23s
H    0     0                    234499.00000 214194.075  8.66%     -   32s
     0     0 214194.836    0 10358 234499.000 214194.836  8.66%     -   34s
     0     0 214195.017    0 10362 234499.000 214195.017  8.66%     -   35s
     0     0 214195.124    0 10364 234499.000 214195.124  8.66%     -   35s
     0     0 214196.664    0 10219 234499.000 214196.664  8.66%     -   40s
H    0     0                    221329.00000 214196.664  3.22%     -   40s
H    0     0                    221319.00000 214196.664  3.22%     -   40s
H    0     0                    221272.00000 214196.664  3.20%     -   41s
H    0     0                    221176.00000 214196.664  3.16%     -   41s
     0     0 214196.848    0 10373 221176.000 214196.848  3.16%     -   43s
     0     0 214196.883    0 10371 221176.000 214196.883  3.16%     -   44s
     0     0 214196.888    0 10369 221176.000 214196.888  3.16%     -   44s
     0     0 214200.802    0 10646 221176.000 214200.802  3.15%     -   57s
     0     0 214201.065    0 10687 221176.000 214201.065  3.15%     -   59s
     0     0 214201.065    0 10693 221176.000 214201.065  3.15%     -   59s
     0     0 214203.009    0 10555 221176.000 214203.009  3.15%     -   70s
H    0     0                    221062.00000 214203.009  3.10%     -   71s
     0     0 214203.550    0 10708 221062.000 214203.550  3.10%     -   72s
     0     0 214203.620    0 10705 221062.000 214203.620  3.10%     -   73s
     0     0 214203.621    0 10703 221062.000 214203.621  3.10%     -   73s
     0     0 214205.619    0 10989 221062.000 214205.619  3.10%     -   82s
     0     0 214205.789    0 10951 221062.000 214205.789  3.10%     -   84s
     0     0 214205.803    0 10949 221062.000 214205.803  3.10%     -   84s
     0     0 214205.807    0 10943 221062.000 214205.807  3.10%     -   87s
H    0     0                    220952.00000 214205.807  3.05%     -   87s
     0     0 214205.807    0 10941 220952.000 214205.807  3.05%     -   88s
     0     0 214205.809    0 10944 220952.000 214205.809  3.05%     -   90s
     0     0 214205.809    0 10944 220952.000 214205.809  3.05%     -  105s
H    0     2                    220905.00000 214205.809  3.03%     -  128s
     0     2 214205.809    0 10944 220905.000 214205.809  3.03%     -  128s
     1     4 214299.805    1 10947 220905.000 214205.886  3.03%  8263  272s
     3     6 214336.897    2 10641 220905.000 214299.924  2.99% 15688  300s

Cutting planes:
  Gomory: 7
  Zero half: 39

Explored 5 nodes (59730 simplex iterations) in 300.06 seconds
Thread count was 16 (of 16 available processors)

Solution count 10: 220905 220952 221062 ... 235524

Time limit reached
Best objective 2.209050000000e+05, best bound 2.143000000000e+05, gap 2.9900%

User-callback calls 114157, time in user-callback 1.41 sec
Result: runtime=300.02sec; objective=220905; gap=2.9900%
Solution written to /autofs/unityaccount/cremi/mdeboute/Bureau/multi-period-flp/solution//instSingle_I30_J250_T12_0_result.txt
